100
32
16
21
28
29
21
5
1
9
25
9
11
26
14
17
12
8
2
17
23
10
3
14
9
17
9
28
1
1
13
11
9
11
15
14
12
3
26
14
20
9
12
2
1
3
22
25
9
1
5
6
9
4
3
24
15
4
13
17
13
3
12
5
1
13
1
7
4
17
1
1
14
11
13
24
10
1
2
3
2
2
5
2
6
3
15
1
15
1
4
1
3
3
2
1
4
1
1
10
1
3